<?xml version="1.0" encoding="UTF-8"?><osil xmlns="os.optimizationservices.org"   xmlns:xsi="http://www.w3.org/2001/XMLSchema-instance" xsi:schemaLocation="os.optimizationservices.org http://www.optimizationservices.org/schemas/2.0/OSiL.xsd" ><instanceHeader><name>q_40_0_50_1</name></instanceHeader><instanceData><variables numberOfVariables="40"><var name="x1" ub="1"/><var name="x2" ub="1"/><var name="x3" ub="1"/><var name="x4" ub="1"/><var name="x5" ub="1"/><var name="x6" ub="1"/><var name="x7" ub="1"/><var name="x8" ub="1"/><var name="x9" ub="1"/><var name="x10" ub="1"/><var name="x11" ub="1"/><var name="x12" ub="1"/><var name="x13" ub="1"/><var name="x14" ub="1"/><var name="x15" ub="1"/><var name="x16" ub="1"/><var name="x17" ub="1"/><var name="x18" ub="1"/><var name="x19" ub="1"/><var name="x20" ub="1"/><var name="x21" ub="1"/><var name="x22" ub="1"/><var name="x23" ub="1"/><var name="x24" ub="1"/><var name="x25" ub="1"/><var name="x26" ub="1"/><var name="x27" ub="1"/><var name="x28" ub="1"/><var name="x29" ub="1"/><var name="x30" ub="1"/><var name="x31" ub="1"/><var name="x32" ub="1"/><var name="x33" ub="1"/><var name="x34" ub="1"/><var name="x35" ub="1"/><var name="x36" ub="1"/><var name="x37" ub="1"/><var name="x38" ub="1"/><var name="x39" ub="1"/><var name="x40" ub="1"/></variables><objectives numberOfObjectives="1"><obj maxOrMin="min" name="defObj_x41" numberOfObjCoef="40"><coef idx="0">7.81e-2</coef><coef idx="1">-2.51e-2</coef><coef idx="2">-.3213</coef><coef idx="3">.8957</coef><coef idx="4">.8012</coef><coef idx="5">.3741</coef><coef idx="6">.7507</coef><coef idx="7">.6214</coef><coef idx="8">-.9874</coef><coef idx="9">-.824</coef><coef idx="10">-.7364</coef><coef idx="11">.5632</coef><coef idx="12">2.77e-2</coef><coef idx="13">.6984</coef><coef idx="14">-.8929</coef><coef idx="15">.9844</coef><coef idx="16">6.04e-2</coef><coef idx="17">-.8473</coef><coef idx="18">-.6641</coef><coef idx="19">-.5341</coef><coef idx="20">-.7171</coef><coef idx="21">-.9632</coef><coef idx="22">-.3165</coef><coef idx="23">-.4889</coef><coef idx="24">-.8841</coef><coef idx="25">.1736</coef><coef idx="26">.9399</coef><coef idx="27">-.491</coef><coef idx="28">.2638</coef><coef idx="29">-.2165</coef><coef idx="30">.1249</coef><coef idx="31">-.917</coef><coef idx="32">-.5353</coef><coef idx="33">.6693</coef><coef idx="34">-.1613</coef><coef idx="35">1.4e-2</coef><coef idx="36">-.8024</coef><coef idx="37">.2702</coef><coef idx="38">-.5259</coef><coef idx="39">-.3402</coef></obj></objectives><quadraticCoefficients  numberOfQuadraticTerms="410" ><qTerm  idx="-1"  idxOne="0"  idxTwo="2"  coef="-1.3306"/><qTerm  idx="-1"  idxOne="0"  idxTwo="4"  coef="-.4399"/><qTerm  idx="-1"  idxOne="0"  idxTwo="6"  coef="-1.8728"/><qTerm  idx="-1"  idxOne="0"  idxTwo="9"  coef="-.3835"/><qTerm  idx="-1"  idxOne="0"  idxTwo="12"  coef="1.3566"/><qTerm  idx="-1"  idxOne="0"  idxTwo="20"  coef="-.8782"/><qTerm  idx="-1"  idxOne="0"  idxTwo="25"  coef="-.4925"/><qTerm  idx="-1"  idxOne="0"  idxTwo="28"  coef="-1.7632"/><qTerm  idx="-1"  idxOne="0"  idxTwo="34"  coef="-1.4925"/><qTerm  idx="-1"  idxOne="0"  idxTwo="35"  coef="1.1896"/><qTerm  idx="-1"  idxOne="0"  idxTwo="37"  coef=".6881"/><qTerm  idx="-1"  idxOne="1"  idxTwo="7"  coef="-1.6991"/><qTerm  idx="-1"  idxOne="1"  idxTwo="10"  coef="-.9784"/><qTerm  idx="-1"  idxOne="1"  idxTwo="12"  coef=".6779"/><qTerm  idx="-1"  idxOne="1"  idxTwo="15"  coef="-1.3269"/><qTerm  idx="-1"  idxOne="1"  idxTwo="16"  coef="-.3671"/><qTerm  idx="-1"  idxOne="1"  idxTwo="17"  coef="-1.8088"/><qTerm  idx="-1"  idxOne="1"  idxTwo="18"  coef="-1.0121"/><qTerm  idx="-1"  idxOne="1"  idxTwo="20"  coef="-1.4745"/><qTerm  idx="-1"  idxOne="1"  idxTwo="21"  coef="1.8706"/><qTerm  idx="-1"  idxOne="1"  idxTwo="23"  coef=".6385"/><qTerm  idx="-1"  idxOne="1"  idxTwo="24"  coef="2.e-3"/><qTerm  idx="-1"  idxOne="1"  idxTwo="25"  coef="1.9749"/><qTerm  idx="-1"  idxOne="1"  idxTwo="27"  coef=".2248"/><qTerm  idx="-1"  idxOne="1"  idxTwo="28"  coef="-.9059"/><qTerm  idx="-1"  idxOne="1"  idxTwo="29"  coef="-1.5295"/><qTerm  idx="-1"  idxOne="1"  idxTwo="32"  coef="-1.7877"/><qTerm  idx="-1"  idxOne="1"  idxTwo="33"  coef="-1.4671"/><qTerm  idx="-1"  idxOne="1"  idxTwo="34"  coef="-.3101"/><qTerm  idx="-1"  idxOne="1"  idxTwo="35"  coef="-7.1e-3"/><qTerm  idx="-1"  idxOne="1"  idxTwo="36"  coef="-1.5604"/><qTerm  idx="-1"  idxOne="1"  idxTwo="37"  coef="-1.8429"/><qTerm  idx="-1"  idxOne="1"  idxTwo="38"  coef="-1.2536"/><qTerm  idx="-1"  idxOne="1"  idxTwo="39"  coef=".8439"/><qTerm  idx="-1"  idxOne="2"  idxTwo="4"  coef="1.9179"/><qTerm  idx="-1"  idxOne="2"  idxTwo="5"  coef="-.6636"/><qTerm  idx="-1"  idxOne="2"  idxTwo="7"  coef="1.5578"/><qTerm  idx="-1"  idxOne="2"  idxTwo="9"  coef="-.6354"/><qTerm  idx="-1"  idxOne="2"  idxTwo="16"  coef="-1.3671"/><qTerm  idx="-1"  idxOne="2"  idxTwo="17"  coef="-.5239"/><qTerm  idx="-1"  idxOne="2"  idxTwo="18"  coef=".9888"/><qTerm  idx="-1"  idxOne="2"  idxTwo="19"  coef=".2273"/><qTerm  idx="-1"  idxOne="2"  idxTwo="21"  coef="-1.6654"/><qTerm  idx="-1"  idxOne="2"  idxTwo="24"  coef="-1.8855"/><qTerm  idx="-1"  idxOne="2"  idxTwo="25"  coef="-1.5409"/><qTerm  idx="-1"  idxOne="2"  idxTwo="28"  coef="1.3532"/><qTerm  idx="-1"  idxOne="2"  idxTwo="29"  coef="1.8404"/><qTerm  idx="-1"  idxOne="2"  idxTwo="31"  coef="-1.1817"/><qTerm  idx="-1"  idxOne="2"  idxTwo="32"  coef="1.4915"/><qTerm  idx="-1"  idxOne="2"  idxTwo="33"  coef="1.2698"/><qTerm  idx="-1"  idxOne="2"  idxTwo="37"  coef="-1.1979"/><qTerm  idx="-1"  idxOne="2"  idxTwo="38"  coef="-1.8878"/><qTerm  idx="-1"  idxOne="3"  idxTwo="6"  coef="7.1e-3"/><qTerm  idx="-1"  idxOne="3"  idxTwo="9"  coef="-1.5134"/><qTerm  idx="-1"  idxOne="3"  idxTwo="11"  coef="-1.0478"/><qTerm  idx="-1"  idxOne="3"  idxTwo="12"  coef="1.0478"/><qTerm  idx="-1"  idxOne="3"  idxTwo="13"  coef="1.3612"/><qTerm  idx="-1"  idxOne="3"  idxTwo="15"  coef="-1.7721"/><qTerm  idx="-1"  idxOne="3"  idxTwo="20"  coef="-.6584"/><qTerm  idx="-1"  idxOne="3"  idxTwo="21"  coef="1.9996"/><qTerm  idx="-1"  idxOne="3"  idxTwo="22"  coef=".833"/><qTerm  idx="-1"  idxOne="3"  idxTwo="26"  coef="-.5844"/><qTerm  idx="-1"  idxOne="3"  idxTwo="28"  coef=".3875"/><qTerm  idx="-1"  idxOne="3"  idxTwo="29"  coef="1.4635"/><qTerm  idx="-1"  idxOne="3"  idxTwo="30"  coef=".464"/><qTerm  idx="-1"  idxOne="3"  idxTwo="33"  coef="-1.7019"/><qTerm  idx="-1"  idxOne="3"  idxTwo="34"  coef="-1.9034"/><qTerm  idx="-1"  idxOne="3"  idxTwo="35"  coef="1.4445"/><qTerm  idx="-1"  idxOne="4"  idxTwo="5"  coef="-1.2627"/><qTerm  idx="-1"  idxOne="4"  idxTwo="6"  coef="-.2273"/><qTerm  idx="-1"  idxOne="4"  idxTwo="8"  coef="1.5587"/><qTerm  idx="-1"  idxOne="4"  idxTwo="9"  coef="1.1163"/><qTerm  idx="-1"  idxOne="4"  idxTwo="12"  coef="1.1994"/><qTerm  idx="-1"  idxOne="4"  idxTwo="14"  coef="-.7608"/><qTerm  idx="-1"  idxOne="4"  idxTwo="15"  coef="1.9819"/><qTerm  idx="-1"  idxOne="4"  idxTwo="16"  coef="1.545"/><qTerm  idx="-1"  idxOne="4"  idxTwo="17"  coef="8.24e-2"/><qTerm  idx="-1"  idxOne="4"  idxTwo="18"  coef="-.2453"/><qTerm  idx="-1"  idxOne="4"  idxTwo="20"  coef=".6077"/><qTerm  idx="-1"  idxOne="4"  idxTwo="25"  coef="1.7183"/><qTerm  idx="-1"  idxOne="4"  idxTwo="27"  coef=".29"/><qTerm  idx="-1"  idxOne="4"  idxTwo="30"  coef="-1.1408"/><qTerm  idx="-1"  idxOne="4"  idxTwo="32"  coef="-1.5875"/><qTerm  idx="-1"  idxOne="4"  idxTwo="33"  coef="-.8838"/><qTerm  idx="-1"  idxOne="4"  idxTwo="34"  coef="-1.7457"/><qTerm  idx="-1"  idxOne="4"  idxTwo="36"  coef="1.3276"/><qTerm  idx="-1"  idxOne="4"  idxTwo="37"  coef="1.8708"/><qTerm  idx="-1"  idxOne="5"  idxTwo="6"  coef="-1.8844"/><qTerm  idx="-1"  idxOne="5"  idxTwo="7"  coef="1.1874"/><qTerm  idx="-1"  idxOne="5"  idxTwo="14"  coef="1.6901"/><qTerm  idx="-1"  idxOne="5"  idxTwo="15"  coef="-.4986"/><qTerm  idx="-1"  idxOne="5"  idxTwo="16"  coef="1.8675"/><qTerm  idx="-1"  idxOne="5"  idxTwo="17"  coef=".8095"/><qTerm  idx="-1"  idxOne="5"  idxTwo="18"  coef="-1.8787"/><qTerm  idx="-1"  idxOne="5"  idxTwo="23"  coef="-.2332"/><qTerm  idx="-1"  idxOne="5"  idxTwo="25"  coef="-.3184"/><qTerm  idx="-1"  idxOne="5"  idxTwo="26"  coef="-.8494"/><qTerm  idx="-1"  idxOne="5"  idxTwo="27"  coef=".6107"/><qTerm  idx="-1"  idxOne="5"  idxTwo="28"  coef="-1.4651"/><qTerm  idx="-1"  idxOne="5"  idxTwo="31"  coef="1.9951"/><qTerm  idx="-1"  idxOne="5"  idxTwo="33"  coef=".4225"/><qTerm  idx="-1"  idxOne="5"  idxTwo="34"  coef="-.359"/><qTerm  idx="-1"  idxOne="5"  idxTwo="35"  coef="-1.5966"/><qTerm  idx="-1"  idxOne="5"  idxTwo="36"  coef="-.5085"/><qTerm  idx="-1"  idxOne="5"  idxTwo="37"  coef="-.1959"/><qTerm  idx="-1"  idxOne="6"  idxTwo="6"  coef="1.0184"/><qTerm  idx="-1"  idxOne="6"  idxTwo="7"  coef="-.5203"/><qTerm  idx="-1"  idxOne="6"  idxTwo="10"  coef=".9001"/><qTerm  idx="-1"  idxOne="6"  idxTwo="11"  coef="1.0453"/><qTerm  idx="-1"  idxOne="6"  idxTwo="12"  coef="-1.7251"/><qTerm  idx="-1"  idxOne="6"  idxTwo="14"  coef=".1314"/><qTerm  idx="-1"  idxOne="6"  idxTwo="17"  coef=".4981"/><qTerm  idx="-1"  idxOne="6"  idxTwo="19"  coef="-1.5518"/><qTerm  idx="-1"  idxOne="6"  idxTwo="21"  coef="-1.2727"/><qTerm  idx="-1"  idxOne="6"  idxTwo="22"  coef="-.9428"/><qTerm  idx="-1"  idxOne="6"  idxTwo="23"  coef=".6235"/><qTerm  idx="-1"  idxOne="6"  idxTwo="24"  coef=".7752"/><qTerm  idx="-1"  idxOne="6"  idxTwo="27"  coef="-1.998"/><qTerm  idx="-1"  idxOne="6"  idxTwo="30"  coef="-1.2327"/><qTerm  idx="-1"  idxOne="6"  idxTwo="31"  coef="-.597"/><qTerm  idx="-1"  idxOne="6"  idxTwo="32"  coef="-1.4873"/><qTerm  idx="-1"  idxOne="6"  idxTwo="33"  coef="-1.4872"/><qTerm  idx="-1"  idxOne="6"  idxTwo="37"  coef=".7654"/><qTerm  idx="-1"  idxOne="6"  idxTwo="38"  coef="-1.2667"/><qTerm  idx="-1"  idxOne="7"  idxTwo="9"  coef="-1.6299"/><qTerm  idx="-1"  idxOne="7"  idxTwo="11"  coef=".163"/><qTerm  idx="-1"  idxOne="7"  idxTwo="13"  coef="1.3926"/><qTerm  idx="-1"  idxOne="7"  idxTwo="14"  coef="1.8081"/><qTerm  idx="-1"  idxOne="7"  idxTwo="20"  coef=".1793"/><qTerm  idx="-1"  idxOne="7"  idxTwo="21"  coef="-.8107"/><qTerm  idx="-1"  idxOne="7"  idxTwo="25"  coef="-1.2953"/><qTerm  idx="-1"  idxOne="7"  idxTwo="26"  coef="-.5415"/><qTerm  idx="-1"  idxOne="7"  idxTwo="27"  coef="-1.9706"/><qTerm  idx="-1"  idxOne="7"  idxTwo="28"  coef="-.5901"/><qTerm  idx="-1"  idxOne="7"  idxTwo="29"  coef=".4473"/><qTerm  idx="-1"  idxOne="7"  idxTwo="32"  coef="-7.62e-2"/><qTerm  idx="-1"  idxOne="7"  idxTwo="33"  coef="1.7261"/><qTerm  idx="-1"  idxOne="7"  idxTwo="37"  coef="1.4976"/><qTerm  idx="-1"  idxOne="7"  idxTwo="38"  coef="-.9682"/><qTerm  idx="-1"  idxOne="7"  idxTwo="39"  coef="-.6393"/><qTerm  idx="-1"  idxOne="8"  idxTwo="8"  coef="-1.9917"/><qTerm  idx="-1"  idxOne="8"  idxTwo="10"  coef="1.4433"/><qTerm  idx="-1"  idxOne="8"  idxTwo="14"  coef=".7242"/><qTerm  idx="-1"  idxOne="8"  idxTwo="15"  coef="-1.147"/><qTerm  idx="-1"  idxOne="8"  idxTwo="16"  coef=".8636"/><qTerm  idx="-1"  idxOne="8"  idxTwo="21"  coef="-1.0657"/><qTerm  idx="-1"  idxOne="8"  idxTwo="22"  coef=".6471"/><qTerm  idx="-1"  idxOne="8"  idxTwo="26"  coef="-.8475"/><qTerm  idx="-1"  idxOne="8"  idxTwo="28"  coef="-.7381"/><qTerm  idx="-1"  idxOne="8"  idxTwo="30"  coef="-.9972"/><qTerm  idx="-1"  idxOne="8"  idxTwo="32"  coef="-.7974"/><qTerm  idx="-1"  idxOne="8"  idxTwo="33"  coef="1.0982"/><qTerm  idx="-1"  idxOne="8"  idxTwo="35"  coef="-.9216"/><qTerm  idx="-1"  idxOne="8"  idxTwo="37"  coef="1.1215"/><qTerm  idx="-1"  idxOne="8"  idxTwo="38"  coef="-1.1331"/><qTerm  idx="-1"  idxOne="9"  idxTwo="9"  coef="-.663"/><qTerm  idx="-1"  idxOne="9"  idxTwo="10"  coef=".3159"/><qTerm  idx="-1"  idxOne="9"  idxTwo="11"  coef="1.7304"/><qTerm  idx="-1"  idxOne="9"  idxTwo="12"  coef="1.9473"/><qTerm  idx="-1"  idxOne="9"  idxTwo="15"  coef="-1.7457"/><qTerm  idx="-1"  idxOne="9"  idxTwo="16"  coef="-1.322"/><qTerm  idx="-1"  idxOne="9"  idxTwo="17"  coef="-1.5991"/><qTerm  idx="-1"  idxOne="9"  idxTwo="19"  coef=".9512"/><qTerm  idx="-1"  idxOne="9"  idxTwo="20"  coef="1.5334"/><qTerm  idx="-1"  idxOne="9"  idxTwo="21"  coef="-.9874"/><qTerm  idx="-1"  idxOne="9"  idxTwo="22"  coef="1.0387"/><qTerm  idx="-1"  idxOne="9"  idxTwo="23"  coef="-.153"/><qTerm  idx="-1"  idxOne="9"  idxTwo="25"  coef="-1.4952"/><qTerm  idx="-1"  idxOne="9"  idxTwo="26"  coef=".1892"/><qTerm  idx="-1"  idxOne="9"  idxTwo="30"  coef=".5378"/><qTerm  idx="-1"  idxOne="9"  idxTwo="31"  coef=".1925"/><qTerm  idx="-1"  idxOne="9"  idxTwo="32"  coef=".3874"/><qTerm  idx="-1"  idxOne="9"  idxTwo="34"  coef="-1.3704"/><qTerm  idx="-1"  idxOne="9"  idxTwo="35"  coef="1.0081"/><qTerm  idx="-1"  idxOne="10"  idxTwo="11"  coef="1.3717"/><qTerm  idx="-1"  idxOne="10"  idxTwo="14"  coef="1.549"/><qTerm  idx="-1"  idxOne="10"  idxTwo="15"  coef=".845"/><qTerm  idx="-1"  idxOne="10"  idxTwo="16"  coef="-6.73e-2"/><qTerm  idx="-1"  idxOne="10"  idxTwo="19"  coef="-1.5746"/><qTerm  idx="-1"  idxOne="10"  idxTwo="20"  coef="-.1678"/><qTerm  idx="-1"  idxOne="10"  idxTwo="22"  coef="1.3808"/><qTerm  idx="-1"  idxOne="10"  idxTwo="24"  coef="-5.13e-2"/><qTerm  idx="-1"  idxOne="10"  idxTwo="26"  coef="-1.4896"/><qTerm  idx="-1"  idxOne="10"  idxTwo="28"  coef="-1.4471"/><qTerm  idx="-1"  idxOne="10"  idxTwo="30"  coef="1.578"/><qTerm  idx="-1"  idxOne="10"  idxTwo="34"  coef="1.3482"/><qTerm  idx="-1"  idxOne="10"  idxTwo="36"  coef=".481"/><qTerm  idx="-1"  idxOne="10"  idxTwo="38"  coef="-1.5744"/><qTerm  idx="-1"  idxOne="11"  idxTwo="12"  coef=".7628"/><qTerm  idx="-1"  idxOne="11"  idxTwo="14"  coef="1.3016"/><qTerm  idx="-1"  idxOne="11"  idxTwo="15"  coef=".382"/><qTerm  idx="-1"  idxOne="11"  idxTwo="20"  coef="-1.2962"/><qTerm  idx="-1"  idxOne="11"  idxTwo="21"  coef="1.7195"/><qTerm  idx="-1"  idxOne="11"  idxTwo="23"  coef="-.2663"/><qTerm  idx="-1"  idxOne="11"  idxTwo="24"  coef="-1.7792"/><qTerm  idx="-1"  idxOne="11"  idxTwo="26"  coef="-1.3782"/><qTerm  idx="-1"  idxOne="11"  idxTwo="33"  coef=".7105"/><qTerm  idx="-1"  idxOne="11"  idxTwo="34"  coef="1.591"/><qTerm  idx="-1"  idxOne="11"  idxTwo="35"  coef="1.853"/><qTerm  idx="-1"  idxOne="11"  idxTwo="39"  coef="1.6272"/><qTerm  idx="-1"  idxOne="12"  idxTwo="14"  coef="-.7974"/><qTerm  idx="-1"  idxOne="12"  idxTwo="16"  coef=".5119"/><qTerm  idx="-1"  idxOne="12"  idxTwo="18"  coef="1.0614"/><qTerm  idx="-1"  idxOne="12"  idxTwo="19"  coef="1.2557"/><qTerm  idx="-1"  idxOne="12"  idxTwo="20"  coef="1.404"/><qTerm  idx="-1"  idxOne="12"  idxTwo="21"  coef=".8647"/><qTerm  idx="-1"  idxOne="12"  idxTwo="22"  coef=".8925"/><qTerm  idx="-1"  idxOne="12"  idxTwo="23"  coef=".3264"/><qTerm  idx="-1"  idxOne="12"  idxTwo="25"  coef="1.5631"/><qTerm  idx="-1"  idxOne="12"  idxTwo="28"  coef="-1.5213"/><qTerm  idx="-1"  idxOne="12"  idxTwo="29"  coef="-.4271"/><qTerm  idx="-1"  idxOne="12"  idxTwo="32"  coef="-.1476"/><qTerm  idx="-1"  idxOne="12"  idxTwo="33"  coef="-.8949"/><qTerm  idx="-1"  idxOne="12"  idxTwo="35"  coef="-1.0872"/><qTerm  idx="-1"  idxOne="12"  idxTwo="36"  coef=".9048"/><qTerm  idx="-1"  idxOne="12"  idxTwo="37"  coef="-.5918"/><qTerm  idx="-1"  idxOne="13"  idxTwo="14"  coef="-1.4461"/><qTerm  idx="-1"  idxOne="13"  idxTwo="17"  coef="-.8612"/><qTerm  idx="-1"  idxOne="13"  idxTwo="18"  coef="-1.9973"/><qTerm  idx="-1"  idxOne="13"  idxTwo="21"  coef="1.7693"/><qTerm  idx="-1"  idxOne="13"  idxTwo="26"  coef="1.1126"/><qTerm  idx="-1"  idxOne="13"  idxTwo="28"  coef="-.8274"/><qTerm  idx="-1"  idxOne="13"  idxTwo="29"  coef="-1.9994"/><qTerm  idx="-1"  idxOne="13"  idxTwo="31"  coef="-1.7943"/><qTerm  idx="-1"  idxOne="13"  idxTwo="32"  coef="1.9337"/><qTerm  idx="-1"  idxOne="13"  idxTwo="33"  coef="-.1813"/><qTerm  idx="-1"  idxOne="13"  idxTwo="36"  coef="-.8859"/><qTerm  idx="-1"  idxOne="13"  idxTwo="37"  coef="-1.7897"/><qTerm  idx="-1"  idxOne="13"  idxTwo="38"  coef="1.6658"/><qTerm  idx="-1"  idxOne="14"  idxTwo="19"  coef="-.4231"/><qTerm  idx="-1"  idxOne="14"  idxTwo="20"  coef="1.9685"/><qTerm  idx="-1"  idxOne="14"  idxTwo="21"  coef="-1.7971"/><qTerm  idx="-1"  idxOne="14"  idxTwo="23"  coef=".4001"/><qTerm  idx="-1"  idxOne="14"  idxTwo="24"  coef="-1.0388"/><qTerm  idx="-1"  idxOne="14"  idxTwo="27"  coef="-.5119"/><qTerm  idx="-1"  idxOne="14"  idxTwo="29"  coef="-1.5592"/><qTerm  idx="-1"  idxOne="14"  idxTwo="30"  coef="7.85e-2"/><qTerm  idx="-1"  idxOne="14"  idxTwo="31"  coef=".8848"/><qTerm  idx="-1"  idxOne="14"  idxTwo="35"  coef="-.8733"/><qTerm  idx="-1"  idxOne="14"  idxTwo="36"  coef="8.46e-2"/><qTerm  idx="-1"  idxOne="14"  idxTwo="38"  coef="1.6723"/><qTerm  idx="-1"  idxOne="15"  idxTwo="17"  coef="1.3402"/><qTerm  idx="-1"  idxOne="15"  idxTwo="18"  coef="-1.5006"/><qTerm  idx="-1"  idxOne="15"  idxTwo="20"  coef="1.6054"/><qTerm  idx="-1"  idxOne="15"  idxTwo="21"  coef="1.9941"/><qTerm  idx="-1"  idxOne="15"  idxTwo="25"  coef="-9.46e-2"/><qTerm  idx="-1"  idxOne="15"  idxTwo="27"  coef="-3.7e-3"/><qTerm  idx="-1"  idxOne="15"  idxTwo="29"  coef="-.5508"/><qTerm  idx="-1"  idxOne="15"  idxTwo="32"  coef="1.0074"/><qTerm  idx="-1"  idxOne="15"  idxTwo="33"  coef="1.8626"/><qTerm  idx="-1"  idxOne="15"  idxTwo="37"  coef="1.8506"/><qTerm  idx="-1"  idxOne="15"  idxTwo="38"  coef="-1.2007"/><qTerm  idx="-1"  idxOne="15"  idxTwo="39"  coef="-1.73"/><qTerm  idx="-1"  idxOne="16"  idxTwo="17"  coef="1.2349"/><qTerm  idx="-1"  idxOne="16"  idxTwo="19"  coef="-1.0571"/><qTerm  idx="-1"  idxOne="16"  idxTwo="20"  coef="-1.368"/><qTerm  idx="-1"  idxOne="16"  idxTwo="21"  coef="-1.5628"/><qTerm  idx="-1"  idxOne="16"  idxTwo="23"  coef="-1.7702"/><qTerm  idx="-1"  idxOne="16"  idxTwo="24"  coef="1.1511"/><qTerm  idx="-1"  idxOne="16"  idxTwo="26"  coef="1.8566"/><qTerm  idx="-1"  idxOne="16"  idxTwo="29"  coef="-1.7774"/><qTerm  idx="-1"  idxOne="16"  idxTwo="31"  coef="-1.6528"/><qTerm  idx="-1"  idxOne="16"  idxTwo="32"  coef="1.6104"/><qTerm  idx="-1"  idxOne="16"  idxTwo="33"  coef=".6486"/><qTerm  idx="-1"  idxOne="16"  idxTwo="36"  coef=".3018"/><qTerm  idx="-1"  idxOne="16"  idxTwo="37"  coef="-1.1411"/><qTerm  idx="-1"  idxOne="16"  idxTwo="39"  coef="1.8979"/><qTerm  idx="-1"  idxOne="17"  idxTwo="20"  coef="5.8e-2"/><qTerm  idx="-1"  idxOne="17"  idxTwo="21"  coef="-1.8953"/><qTerm  idx="-1"  idxOne="17"  idxTwo="24"  coef="1.5017"/><qTerm  idx="-1"  idxOne="17"  idxTwo="25"  coef="-.2015"/><qTerm  idx="-1"  idxOne="17"  idxTwo="26"  coef="-1.1262"/><qTerm  idx="-1"  idxOne="17"  idxTwo="27"  coef="-1.2079"/><qTerm  idx="-1"  idxOne="17"  idxTwo="29"  coef="1.9335"/><qTerm  idx="-1"  idxOne="17"  idxTwo="30"  coef="-.8937"/><qTerm  idx="-1"  idxOne="17"  idxTwo="32"  coef=".2601"/><qTerm  idx="-1"  idxOne="17"  idxTwo="33"  coef=".8851"/><qTerm  idx="-1"  idxOne="17"  idxTwo="35"  coef="1.4345"/><qTerm  idx="-1"  idxOne="17"  idxTwo="36"  coef="-.3869"/><qTerm  idx="-1"  idxOne="17"  idxTwo="39"  coef="-.448"/><qTerm  idx="-1"  idxOne="18"  idxTwo="19"  coef=".3002"/><qTerm  idx="-1"  idxOne="18"  idxTwo="23"  coef=".1901"/><qTerm  idx="-1"  idxOne="18"  idxTwo="27"  coef="-1.8082"/><qTerm  idx="-1"  idxOne="18"  idxTwo="28"  coef="-1.9052"/><qTerm  idx="-1"  idxOne="18"  idxTwo="31"  coef=".9263"/><qTerm  idx="-1"  idxOne="18"  idxTwo="33"  coef="1.9298"/><qTerm  idx="-1"  idxOne="18"  idxTwo="37"  coef="-.4753"/><qTerm  idx="-1"  idxOne="18"  idxTwo="38"  coef="-.5892"/><qTerm  idx="-1"  idxOne="19"  idxTwo="19"  coef="-1.3405"/><qTerm  idx="-1"  idxOne="19"  idxTwo="21"  coef="-.503"/><qTerm  idx="-1"  idxOne="19"  idxTwo="26"  coef="-1.84"/><qTerm  idx="-1"  idxOne="19"  idxTwo="30"  coef="-3.8e-2"/><qTerm  idx="-1"  idxOne="19"  idxTwo="31"  coef="1.7036"/><qTerm  idx="-1"  idxOne="19"  idxTwo="32"  coef="1.5767"/><qTerm  idx="-1"  idxOne="19"  idxTwo="33"  coef="-1.3973"/><qTerm  idx="-1"  idxOne="19"  idxTwo="34"  coef=".8717"/><qTerm  idx="-1"  idxOne="19"  idxTwo="35"  coef="-1.6435"/><qTerm  idx="-1"  idxOne="19"  idxTwo="36"  coef=".9676"/><qTerm  idx="-1"  idxOne="19"  idxTwo="37"  coef="1.1349"/><qTerm  idx="-1"  idxOne="19"  idxTwo="38"  coef="-5.55e-2"/><qTerm  idx="-1"  idxOne="20"  idxTwo="20"  coef=".6771"/><qTerm  idx="-1"  idxOne="20"  idxTwo="21"  coef="-1.3865"/><qTerm  idx="-1"  idxOne="20"  idxTwo="22"  coef="-1.8126"/><qTerm  idx="-1"  idxOne="20"  idxTwo="23"  coef="-.6619"/><qTerm  idx="-1"  idxOne="20"  idxTwo="25"  coef=".2035"/><qTerm  idx="-1"  idxOne="20"  idxTwo="26"  coef=".935"/><qTerm  idx="-1"  idxOne="20"  idxTwo="27"  coef="-1.004"/><qTerm  idx="-1"  idxOne="20"  idxTwo="30"  coef="1.1237"/><qTerm  idx="-1"  idxOne="20"  idxTwo="32"  coef="1.9578"/><qTerm  idx="-1"  idxOne="20"  idxTwo="34"  coef=".7544"/><qTerm  idx="-1"  idxOne="20"  idxTwo="37"  coef="-1.0937"/><qTerm  idx="-1"  idxOne="20"  idxTwo="39"  coef="-.6996"/><qTerm  idx="-1"  idxOne="21"  idxTwo="22"  coef="-.957"/><qTerm  idx="-1"  idxOne="21"  idxTwo="23"  coef="-.1795"/><qTerm  idx="-1"  idxOne="21"  idxTwo="24"  coef="-.3501"/><qTerm  idx="-1"  idxOne="21"  idxTwo="25"  coef="-1.66e-2"/><qTerm  idx="-1"  idxOne="21"  idxTwo="26"  coef="-.352"/><qTerm  idx="-1"  idxOne="21"  idxTwo="27"  coef="1.4138"/><qTerm  idx="-1"  idxOne="21"  idxTwo="28"  coef=".6043"/><qTerm  idx="-1"  idxOne="21"  idxTwo="29"  coef="-.4672"/><qTerm  idx="-1"  idxOne="21"  idxTwo="30"  coef=".1982"/><qTerm  idx="-1"  idxOne="21"  idxTwo="31"  coef="1.7524"/><qTerm  idx="-1"  idxOne="21"  idxTwo="32"  coef="1.9431"/><qTerm  idx="-1"  idxOne="21"  idxTwo="33"  coef="1.9722"/><qTerm  idx="-1"  idxOne="21"  idxTwo="35"  coef=".7124"/><qTerm  idx="-1"  idxOne="21"  idxTwo="36"  coef="1.0623"/><qTerm  idx="-1"  idxOne="21"  idxTwo="37"  coef=".4484"/><qTerm  idx="-1"  idxOne="21"  idxTwo="38"  coef="-1.4635"/><qTerm  idx="-1"  idxOne="22"  idxTwo="23"  coef="1.9461"/><qTerm  idx="-1"  idxOne="22"  idxTwo="25"  coef=".434"/><qTerm  idx="-1"  idxOne="22"  idxTwo="33"  coef="-1.751"/><qTerm  idx="-1"  idxOne="22"  idxTwo="34"  coef=".5918"/><qTerm  idx="-1"  idxOne="22"  idxTwo="35"  coef="-1.884"/><qTerm  idx="-1"  idxOne="22"  idxTwo="36"  coef="-2.65e-2"/><qTerm  idx="-1"  idxOne="22"  idxTwo="37"  coef="1.6542"/><qTerm  idx="-1"  idxOne="22"  idxTwo="39"  coef="-.2878"/><qTerm  idx="-1"  idxOne="23"  idxTwo="23"  coef="-.7376"/><qTerm  idx="-1"  idxOne="23"  idxTwo="24"  coef=".5694"/><qTerm  idx="-1"  idxOne="23"  idxTwo="31"  coef=".1757"/><qTerm  idx="-1"  idxOne="23"  idxTwo="32"  coef=".5279"/><qTerm  idx="-1"  idxOne="23"  idxTwo="34"  coef="1.2099"/><qTerm  idx="-1"  idxOne="23"  idxTwo="35"  coef="1.146"/><qTerm  idx="-1"  idxOne="23"  idxTwo="36"  coef=".7087"/><qTerm  idx="-1"  idxOne="23"  idxTwo="37"  coef="-1.6576"/><qTerm  idx="-1"  idxOne="23"  idxTwo="39"  coef="-1.9612"/><qTerm  idx="-1"  idxOne="24"  idxTwo="28"  coef="1.0482"/><qTerm  idx="-1"  idxOne="24"  idxTwo="30"  coef="-1.188"/><qTerm  idx="-1"  idxOne="24"  idxTwo="35"  coef="-.3753"/><qTerm  idx="-1"  idxOne="24"  idxTwo="36"  coef="-.6398"/><qTerm  idx="-1"  idxOne="24"  idxTwo="39"  coef="3.73e-2"/><qTerm  idx="-1"  idxOne="25"  idxTwo="26"  coef="-.2838"/><qTerm  idx="-1"  idxOne="25"  idxTwo="27"  coef="-.6387"/><qTerm  idx="-1"  idxOne="25"  idxTwo="28"  coef="-1.1974"/><qTerm  idx="-1"  idxOne="25"  idxTwo="29"  coef="-1.6158"/><qTerm  idx="-1"  idxOne="25"  idxTwo="32"  coef="-1.0389"/><qTerm  idx="-1"  idxOne="25"  idxTwo="33"  coef="-1.7371"/><qTerm  idx="-1"  idxOne="25"  idxTwo="34"  coef="1.8019"/><qTerm  idx="-1"  idxOne="25"  idxTwo="35"  coef="-1.309"/><qTerm  idx="-1"  idxOne="25"  idxTwo="37"  coef="-1.2816"/><qTerm  idx="-1"  idxOne="25"  idxTwo="38"  coef="-1.6747"/><qTerm  idx="-1"  idxOne="26"  idxTwo="28"  coef=".9929"/><qTerm  idx="-1"  idxOne="26"  idxTwo="32"  coef="1.0372"/><qTerm  idx="-1"  idxOne="26"  idxTwo="35"  coef=".9149"/><qTerm  idx="-1"  idxOne="26"  idxTwo="36"  coef="1.8669"/><qTerm  idx="-1"  idxOne="27"  idxTwo="32"  coef=".8095"/><qTerm  idx="-1"  idxOne="27"  idxTwo="33"  coef="-1.3588"/><qTerm  idx="-1"  idxOne="27"  idxTwo="34"  coef="-.5115"/><qTerm  idx="-1"  idxOne="27"  idxTwo="35"  coef="1.9019"/><qTerm  idx="-1"  idxOne="27"  idxTwo="36"  coef="-1.0154"/><qTerm  idx="-1"  idxOne="27"  idxTwo="38"  coef="-1.3804"/><qTerm  idx="-1"  idxOne="27"  idxTwo="39"  coef="-1.8303"/><qTerm  idx="-1"  idxOne="28"  idxTwo="28"  coef=".7104"/><qTerm  idx="-1"  idxOne="28"  idxTwo="31"  coef="-1.1322"/><qTerm  idx="-1"  idxOne="28"  idxTwo="35"  coef="1.2301"/><qTerm  idx="-1"  idxOne="28"  idxTwo="36"  coef="-1.4318"/><qTerm  idx="-1"  idxOne="28"  idxTwo="37"  coef="1.7065"/><qTerm  idx="-1"  idxOne="28"  idxTwo="39"  coef="1.9871"/><qTerm  idx="-1"  idxOne="29"  idxTwo="32"  coef=".1389"/><qTerm  idx="-1"  idxOne="29"  idxTwo="33"  coef=".883"/><qTerm  idx="-1"  idxOne="29"  idxTwo="36"  coef="1.7585"/><qTerm  idx="-1"  idxOne="29"  idxTwo="37"  coef="-.112"/><qTerm  idx="-1"  idxOne="29"  idxTwo="39"  coef="-1.7681"/><qTerm  idx="-1"  idxOne="30"  idxTwo="30"  coef="1.0178"/><qTerm  idx="-1"  idxOne="30"  idxTwo="33"  coef="1.239"/><qTerm  idx="-1"  idxOne="30"  idxTwo="34"  coef="-.4647"/><qTerm  idx="-1"  idxOne="30"  idxTwo="35"  coef="1.7937"/><qTerm  idx="-1"  idxOne="30"  idxTwo="37"  coef="1.0258"/><qTerm  idx="-1"  idxOne="30"  idxTwo="38"  coef="-1.6313"/><qTerm  idx="-1"  idxOne="31"  idxTwo="32"  coef="-.2597"/><qTerm  idx="-1"  idxOne="31"  idxTwo="33"  coef="-.7306"/><qTerm  idx="-1"  idxOne="31"  idxTwo="34"  coef="-.6684"/><qTerm  idx="-1"  idxOne="31"  idxTwo="35"  coef="-.4475"/><qTerm  idx="-1"  idxOne="31"  idxTwo="36"  coef="1.7288"/><qTerm  idx="-1"  idxOne="31"  idxTwo="37"  coef=".7562"/><qTerm  idx="-1"  idxOne="32"  idxTwo="34"  coef=".5761"/><qTerm  idx="-1"  idxOne="32"  idxTwo="37"  coef="-1.8186"/><qTerm  idx="-1"  idxOne="32"  idxTwo="38"  coef="1.8451"/><qTerm  idx="-1"  idxOne="32"  idxTwo="39"  coef=".235"/><qTerm  idx="-1"  idxOne="33"  idxTwo="34"  coef="-1.4312"/><qTerm  idx="-1"  idxOne="33"  idxTwo="36"  coef="-1.7488"/><qTerm  idx="-1"  idxOne="34"  idxTwo="34"  coef="1.4061"/><qTerm  idx="-1"  idxOne="34"  idxTwo="35"  coef="-1.3494"/><qTerm  idx="-1"  idxOne="34"  idxTwo="38"  coef="1.347"/><qTerm  idx="-1"  idxOne="34"  idxTwo="39"  coef="7.e-4"/><qTerm  idx="-1"  idxOne="35"  idxTwo="36"  coef="-.438"/><qTerm  idx="-1"  idxOne="35"  idxTwo="39"  coef="-.7238"/><qTerm  idx="-1"  idxOne="36"  idxTwo="37"  coef="-.2669"/><qTerm  idx="-1"  idxOne="36"  idxTwo="38"  coef="1.8462"/><qTerm  idx="-1"  idxOne="37"  idxTwo="38"  coef=".1605"/><qTerm  idx="-1"  idxOne="38"  idxTwo="38"  coef="-.1331"/></quadraticCoefficients></instanceData></osil>
